# Solution for model obj
# Objective value = 4.0382653717999936e+04
z 4.0382653717999936e+04
X_1_1 0
X_1_2 0
X_1_3 1
X_1_4 0
X_1_5 0
X_1_6 0
X_1_7 0
X_1_8 0
X_1_9 0
X_1_10 0
X_2_1 0
X_2_2 0
X_2_3 1
X_2_4 0
X_2_5 0
X_2_6 0
X_2_7 0
X_2_8 0
X_2_9 0
X_2_10 0
X_3_1 0
X_3_2 0
X_3_3 1
X_3_4 0
X_3_5 0
X_3_6 0
X_3_7 0
X_3_8 0
X_3_9 0
X_3_10 0
X_4_1 0
X_4_2 0
X_4_3 0
X_4_4 0
X_4_5 1
X_4_6 0
X_4_7 0
X_4_8 0
X_4_9 0
X_4_10 0
X_5_1 0
X_5_2 0
X_5_3 0
X_5_4 0
X_5_5 1
X_5_6 0
X_5_7 0
X_5_8 0
X_5_9 0
X_5_10 0
X_6_1 0
X_6_2 0
X_6_3 1
X_6_4 0
X_6_5 0
X_6_6 0
X_6_7 0
X_6_8 0
X_6_9 0
X_6_10 0
X_7_1 0
X_7_2 0
X_7_3 0
X_7_4 0
X_7_5 1
X_7_6 0
X_7_7 0
X_7_8 0
X_7_9 0
X_7_10 0
X_8_1 0
X_8_2 0
X_8_3 0
X_8_4 0
X_8_5 1
X_8_6 0
X_8_7 0
X_8_8 0
X_8_9 0
X_8_10 0
X_9_1 0
X_9_2 0
X_9_3 0
X_9_4 0
X_9_5 1
X_9_6 0
X_9_7 0
X_9_8 0
X_9_9 0
X_9_10 0
X_10_1 0
X_10_2 0
X_10_3 0
X_10_4 0
X_10_5 1
X_10_6 0
X_10_7 0
X_10_8 0
X_10_9 0
X_10_10 0
r_1 0
r_2 0
r_3 20191.326859
r_4 0
r_5 14466.613927
r_6 0
r_7 0
r_8 0
r_9 0
r_10 0
r_0 0
